words_hard_train/8439.qaiger
aag 104 24 0 1 80
2
4
8
12
16
20
24
32
34
38
42
46
50
54
58
72
80
84
100
118
132
144
154
174
209
6 2 4
10 6 8
14 10 12
18 14 16
22 18 20
26 23 25
28 22 24
30 27 29
36 33 35
40 36 39
44 40 43
48 44 47
52 48 51
56 52 55
60 57 58
62 53 54
64 60 63
66 31 64
68 30 65
70 67 69
74 28 73
76 29 72
78 75 77
82 56 81
86 83 84
88 57 80
90 86 89
92 79 91
94 78 90
96 93 95
98 49 50
102 99 100
104 102 53
106 19 21
108 107 23
110 105 109
112 104 108
114 111 113
116 41 42
120 117 118
122 120 45
124 11 13
126 125 15
128 122 127
130 32 34
134 131 132
136 134 37
138 136 4
140 137 5
142 139 141
146 144 32
148 142 146
150 129 149
152 45 46
156 153 154
158 156 49
160 15 17
162 161 19
164 159 162
166 150 165
168 7 9
170 169 11
172 37 38
176 173 174
178 176 41
180 171 178
182 170 179
184 181 183
186 158 163
188 184 187
190 166 188
192 123 126
194 142 2
196 146 3
198 195 197
200 193 199
202 190 200
204 115 202
206 96 204
208 70 206
i0 2 y2[0]
i1 2 y2[1]
i2 2 y2[2]
i3 2 y2[3]
i4 2 y2[4]
i5 2 y2[5]
i6 2 y2[6]
i7 1 x1[0]
i8 1 x1[1]
i9 1 x1[2]
i10 1 x1[3]
i11 1 x1[4]
i12 1 x1[5]
i13 1 x1[6]
i14 2 y1[6]
i15 2 y2[7]
i16 1 x1[7]
i17 2 y1[7]
i18 2 y1[5]
i19 2 y1[3]
i20 2 y1[1]
i21 2 y1[0]
i22 2 y1[4]
i23 2 y1[2]
o0 bool[0]
c
simplified
  !=
    and
      unary minus
        1 x1
      2 y1
    add
      2 y2
      1
