words_hard_train/8439.qaiger.qdimacs
p cnf 104 241
a 40 16 17 19 21 23 25 27 0
e 1 2 3 4 5 6 7 8 9 10 11 12 13 14 15 18 20 22 24 26 28 29 30 31 32 33 34 35 36 37 38 39 41 42 43 44 45 46 47 48 49 50 51 52 53 54 55 56 57 58 59 60 61 62 63 64 65 66 67 68 69 70 71 72 73 74 75 76 77 78 79 80 81 82 83 84 85 86 87 88 89 90 91 92 93 94 95 96 97 98 99 100 101 102 103 104 0
-1 -2 3 0
1 -3 0
2 -3 0
-3 -4 5 0
3 -5 0
4 -5 0
-5 -6 7 0
5 -7 0
6 -7 0
-7 -8 9 0
7 -9 0
8 -9 0
-9 -10 11 0
9 -11 0
10 -11 0
11 12 13 0
-11 -13 0
-12 -13 0
-11 -12 14 0
11 -14 0
12 -14 0
13 14 15 0
-13 -15 0
-14 -15 0
16 17 18 0
-16 -18 0
-17 -18 0
-18 19 20 0
18 -20 0
-19 -20 0
-20 21 22 0
20 -22 0
-21 -22 0
-22 23 24 0
22 -24 0
-23 -24 0
-24 25 26 0
24 -26 0
-25 -26 0
-26 27 28 0
26 -28 0
-27 -28 0
28 -29 30 0
-28 -30 0
29 -30 0
26 -27 31 0
-26 -31 0
27 -31 0
-30 31 32 0
30 -32 0
-31 -32 0
15 -32 33 0
-15 -33 0
32 -33 0
-15 32 34 0
15 -34 0
-32 -34 0
33 34 35 0
-33 -35 0
-34 -35 0
-14 36 37 0
14 -37 0
-36 -37 0
14 -36 38 0
-14 -38 0
36 -38 0
37 38 39 0
-37 -39 0
-38 -39 0
-28 40 41 0
28 -41 0
-40 -41 0
41 -42 43 0
-41 -43 0
42 -43 0
28 -40 44 0
-28 -44 0
40 -44 0
-43 44 45 0
43 -45 0
-44 -45 0
39 45 46 0
-39 -46 0
-45 -46 0
-39 -45 47 0
39 -47 0
45 -47 0
46 47 48 0
-46 -48 0
-47 -48 0
24 -25 49 0
-24 -49 0
25 -49 0
49 -50 51 0
-49 -51 0
50 -51 0
-51 26 52 0
51 -52 0
-26 -52 0
9 10 53 0
-9 -53 0
-10 -53 0
53 11 54 0
-53 -54 0
-11 -54 0
52 54 55 0
-52 -55 0
-54 -55 0
-52 -54 56 0
52 -56 0
54 -56 0
55 56 57 0
-55 -57 0
-56 -57 0
20 -21 58 0
-20 -58 0
21 -58 0
58 -59 60 0
-58 -60 0
59 -60 0
-60 22 61 0
60 -61 0
-22 -61 0
5 6 62 0
-5 -62 0
-6 -62 0
62 7 63 0
-62 -63 0
-7 -63 0
-61 63 64 0
61 -64 0
-63 -64 0
-16 -17 65 0
16 -65 0
17 -65 0
65 -66 67 0
-65 -67 0
66 -67 0
-67 18 68 0
67 -68 0
-18 -68 0
-68 -2 69 0
68 -69 0
2 -69 0
68 2 70 0
-68 -70 0
-2 -70 0
69 70 71 0
-69 -71 0
-70 -71 0
-72 -16 73 0
72 -73 0
16 -73 0
-71 -73 74 0
71 -74 0
73 -74 0
64 74 75 0
-64 -75 0
-74 -75 0
22 -23 76 0
-22 -76 0
23 -76 0
76 -77 78 0
-76 -78 0
77 -78 0
-78 24 79 0
78 -79 0
-24 -79 0
7 8 80 0
-7 -80 0
-8 -80 0
80 9 81 0
-80 -81 0
-9 -81 0
79 -81 82 0
-79 -82 0
81 -82 0
-75 82 83 0
75 -83 0
-82 -83 0
3 4 84 0
-3 -84 0
-4 -84 0
84 5 85 0
-84 -85 0
-5 -85 0
18 -19 86 0
-18 -86 0
19 -86 0
86 -87 88 0
-86 -88 0
87 -88 0
-88 20 89 0
88 -89 0
-20 -89 0
85 -89 90 0
-85 -90 0
89 -90 0
-85 89 91 0
85 -91 0
-89 -91 0
90 91 92 0
-90 -92 0
-91 -92 0
-79 81 93 0
79 -93 0
-81 -93 0
-92 93 94 0
92 -94 0
-93 -94 0
-83 -94 95 0
83 -95 0
94 -95 0
61 -63 96 0
-61 -96 0
63 -96 0
-71 -1 97 0
71 -97 0
1 -97 0
-73 1 98 0
73 -98 0
-1 -98 0
97 98 99 0
-97 -99 0
-98 -99 0
96 99 100 0
-96 -100 0
-99 -100 0
-95 -100 101 0
95 -101 0
100 -101 0
57 -101 102 0
-57 -102 0
101 -102 0
-48 -102 103 0
48 -103 0
102 -103 0
-35 -103 104 0
35 -104 0
103 -104 0
-104 0
